tsp_instances/TSP50/instance80.tsp
NODE_COORD_SECTION
0 48 41
1 155 142
2 7 7
3 74 37
4 27 30
5 153 27
6 148 85
7 89 181
8 39 93
9 43 191
10 39 7
11 14 56
12 68 72
13 152 184
14 96 87
15 109 103
16 96 117
17 17 1
18 139 38
19 60 123
20 159 196
21 95 176
22 180 173
23 163 55
24 109 7
25 36 162
26 196 50
27 34 22
28 185 42
29 170 91
30 41 109
31 193 102
32 110 134
33 10 66
34 90 141
35 191 100
36 119 172
37 136 46
38 183 32
39 20 115
40 134 69
41 162 148
42 4 30
43 160 194
44 199 28
45 26 41
46 196 35
47 58 141
48 81 192
49 114 84
