tsp_instances/TSP50/instance80.opt.tour
TOUR_SECTION
1
4
25
38
19
6
39
45
47
27
29
24
41
7
30
36
32
2
42
23
44
21
14
37
22
8
49
10
26
48
20
35
33
17
16
50
15
13
9
31
40
34
12
43
3
18
11
28
5
46
-1